
  22    4
  10   10   10   10

   0   0   0   0   0   7 2 3 4 6 7 8 10 
   6  10  10  10  10   4 15 12 11 5 
   1  10  10  10  10   5 21 15 14 12 9 
   4  10  10  10  10   4 21 15 12 11 
   7  10  10  10  10   4 21 20 14 13 
  10  10  10  10  10   3 20 14 12 
   2  10  10  10  10   3 20 14 13 
   4  10  10  10  10   5 21 20 19 18 16 
  10  10  10  10  10   2 20 13 
   3  10  10  10  10   2 21 13 
   8  10  10  10  10   2 20 14 
   5  10  10  10  10   1 13 
   4  10  10  10  10   3 19 18 16 
   3  10  10  10  10   2 18 16 
   9  10  10  10  10   1 16 
   7  10  10  10  10   1 17 
  10  10  10  10  10   1 22
   8  10  10  10  10   1 22
   1  10  10  10  10   1 22
   4  10  10  10  10   1 22
   5  10  10  10  10   1 22
   0   0   0   0   0   0 
